540,600
521,487
504,378
663,288
1051,526
1095,471
998,-30
681,-74
910,91
999,88
663,288
366,177
363,724
307,596
782,719
980,818
620,791
540,600
975,555
1051,526
829,554
749,539
1135,175
1081,202
787,352
652,410
764,662
829,554
868,501
858,434
975,555
1081,202
999,88
364,-30
254,189
366,177
364,-30
